TYPE : Vertex Cover
DIMENSION: 40
EDGE_DATA_SECTION:
0 4
0 5
0 6
0 12
0 21
0 25
0 28
0 33
0 34
0 38
1 5
1 7
1 12
1 13
1 15
1 18
1 19
1 22
1 32
1 34
2 3
2 14
2 17
2 20
2 25
2 28
2 29
2 36
2 37
2 39
3 12
3 13
3 19
3 22
3 23
3 25
3 27
3 29
3 31
3 34
4 6
4 8
4 16
4 18
4 27
4 28
4 36
5 8
5 9
5 11
5 13
5 17
5 19
5 22
5 25
5 27
5 29
5 38
5 39
6 8
6 17
6 25
6 29
6 33
6 35
7 14
7 19
7 28
8 11
8 15
8 18
8 24
9 10
9 12
9 13
9 15
9 17
9 21
9 22
9 25
9 28
9 38
9 39
10 14
10 16
10 28
10 30
10 38
11 15
11 20
11 28
11 29
11 33
11 37
12 13
12 20
12 21
12 31
12 33
12 37
13 14
13 15
13 16
13 20
13 22
13 23
13 31
13 33
13 36
13 37
13 39
14 16
14 17
14 18
14 19
14 20
14 21
14 23
14 28
14 33
14 39
15 17
15 27
15 28
15 33
15 35
15 37
16 17
16 19
16 20
16 26
16 34
16 36
16 37
17 26
17 37
17 38
18 22
18 26
18 31
18 38
19 23
19 26
19 29
19 34
19 39
20 25
20 27
20 32
20 33
20 35
20 37
20 39
21 22
21 31
21 36
22 28
22 32
22 38
23 27
23 28
23 30
23 37
23 39
24 25
24 30
24 35
24 38
24 39
25 26
25 27
25 28
25 31
25 34
25 37
26 29
26 32
26 36
27 29
27 31
27 36
27 38
27 39
28 31
28 32
29 30
29 32
29 35
29 38
30 32
30 38
31 37
33 36
33 39
34 37
35 39
37 39
-1
VERTEX_DEGREE:
10.0 10.0 10.0 11.0 8.0 14.0 8.0 4.0 7.0 12.0 6.0 8.0 10.0 16.0 14.0 11.0 11.0 10.0 8.0 11.0 13.0 7.0 10.0 9.0 6.0 14.0 8.0 12.0 14.0 12.0 6.0 9.0 7.0 10.0 7.0 6.0 8.0 13.0 11.0 13.0
VERTEX_COVER:
0 1 3 4 8 9 11 12 13 14 16 17 19 20 22 25 26 27 28 29 30 31 33 35 36 37 38 39
EOF
